500
1000
380
380
379
378
378
378
377
376
374
374
372
372
372
371
370
370
369
368
368
368
367
366
366
365
362
361
361
360
359
359
358
356
356
355
355
355
355
353
353
352
351
351
350
350
349
349
348
348
348
348
347
347
346
345
344
344
343
343
343
342
341
341
339
339
339
339
336
335
334
331
329
329
329
329
328
328
328
325
325
325
325
322
322
321
321
320
320
320
319
318
318
318
317
316
316
315
315
315
314
314
313
313
312
312
312
311
310
309
308
307
307
307
306
304
301
300
300
299
299
298
298
297
296
295
295
295
295
295
295
293
293
293
292
291
289
288
285
284
280
278
277
276
275
274
274
273
273
273
273
272
272
269
269
268
268
267
267
264
264
264
264
262
260
260
260
258
258
257
257
256
255
254
253
253
253
252
252
251
251
250
249
249
248
246
245
244
243
243
243
242
242
241
241
241
241
239
238
238
237
237
237
234
234
231
230
229
228
228
227
227
226
226
226
226
225
225
224
224
224
224
221
221
219
219
219
219
218
218
215
215
214
214
212
212
210
209
208
208
207
205
204
203
201
200
198
198
198
198
197
197
197
196
196
195
194
193
192
191
188
187
187
186
185
185
185
185
184
184
183
183
183
181
181
181
180
180
180
179
179
178
177
177
176
175
173
173
173
173
171
171
170
168
168
168
168
162
161
159
158
158
158
157
157
156
155
154
154
154
153
152
152
151
151
148
148
148
147
146
144
144
144
143
142
140
138
138
138
137
137
136
136
136
135
134
133
133
133
132
132
132
131
129
129
128
128
127
126
124
123
123
122
122
120
120
120
120
120
118
118
118
117
117
117
117
116
115
115
115
114
114
113
110
110
109
108
107
106
106
106
104
103
102
102
101
100
97
97
96
96
95
95
91
90
90
89
89
88
88
87
86
86
85
85
84
84
84
84
83
83
83
81
81
81
80
79
78
77
77
77
76
73
73
71
71
70
70
70
69
68
68
67
66
65
65
62
61
61
61
59
59
59
59
57
57
56
54
54
54
54
53
53
53
52
51
50
50
50
49
48
48
48
48
47
45
44
42
41
41
41
41
38
38
38
37
34
33
32
31
31
31
31
31
30
30
29
28
28
28
27
26
26
26
26
26
25
24
23
23
22
22
